(set-logic QF_SLAH)

(declare-datatypes ((data_t 0)) (((c_data_t (sz Int)))))

(declare-heap (Int data_t))

(define-fun hck ((?x Int) (?y Int) (?v Int)) Bool
	(and
		(>= (- ?y ?x) 2) (<= (- ?y ?x) ?v)
		(sep (pto ?x (c_data_t (- ?y ?x))) (blk (+ ?x 1) ?y))
))

(define-fun-rec hls ((?x Int) (?y Int) (?v Int)) Bool
	(or
		(and (= ?x ?y) (_ emp Int data_t))
		(exists ((?w Int)) (sep (hck ?x ?w ?v) (hls ?w ?y ?v)))
))

(declare-const x0 Int)
(declare-const x1 Int)
(declare-const x2 Int)
(declare-const x3 Int)
(declare-const x4 Int)
(declare-const x5 Int)
(declare-const x6 Int)
(declare-const x7 Int)
(declare-const x8 Int)
(declare-const x9 Int)
(declare-const x10 Int)
(declare-const x11 Int)
(declare-const x12 Int)
(declare-const x13 Int)
(declare-const v12 Int)
(declare-const x14 Int)
(declare-const x15 Int)
(declare-const v14 Int)
(declare-const x16 Int)
(declare-const x17 Int)
(declare-const x18 Int)
(declare-const x19 Int)
(declare-const x20 Int)
(declare-const x21 Int)
(declare-const v20 Int)
(declare-const x22 Int)
(declare-const x23 Int)
(declare-const v22 Int)
(declare-const x24 Int)
(declare-const x25 Int)
(declare-const v24 Int)
(declare-const x26 Int)
(declare-const x27 Int)
(declare-const x28 Int)
(declare-const x29 Int)
(declare-const v28 Int)
(declare-const x30 Int)
(declare-const x31 Int)
(declare-const x32 Int)
(declare-const x33 Int)
(declare-const x34 Int)
(declare-const x35 Int)
(declare-const x36 Int)
(declare-const x37 Int)
(declare-const x38 Int)
(declare-const x39 Int)
(declare-const x40 Int)
(declare-const x41 Int)
(declare-const v40 Int)
(declare-const x42 Int)
(declare-const x43 Int)
(declare-const x44 Int)
(declare-const x45 Int)
(declare-const x46 Int)
(declare-const x47 Int)
(declare-const x48 Int)
(declare-const x49 Int)
(declare-const x50 Int)
(declare-const x51 Int)
(declare-const x52 Int)
(declare-const x53 Int)
(declare-const x54 Int)
(declare-const x55 Int)
(declare-const x56 Int)
(declare-const x57 Int)
(declare-const v56 Int)
(declare-const x58 Int)
(declare-const x59 Int)
(declare-const x60 Int)
(declare-const x61 Int)
(declare-const x62 Int)
(declare-const x63 Int)
(declare-const v62 Int)
(declare-const x64 Int)
(declare-const x65 Int)
(declare-const x66 Int)
(declare-const x67 Int)
(declare-const x68 Int)
(declare-const x69 Int)
(declare-const v68 Int)
(declare-const x70 Int)
(declare-const x71 Int)
(declare-const x72 Int)
(declare-const x73 Int)
(declare-const v72 Int)
(declare-const x74 Int)
(declare-const x75 Int)
(declare-const v74 Int)
(declare-const x76 Int)
(declare-const x77 Int)
(declare-const v76 Int)
(declare-const x78 Int)
(declare-const x79 Int)
(declare-const v78 Int)
(declare-const x80 Int)
(declare-const x81 Int)
(declare-const x82 Int)
(declare-const x83 Int)
(declare-const v82 Int)
(declare-const x84 Int)
(declare-const x85 Int)
(declare-const x86 Int)
(declare-const x87 Int)
(declare-const v86 Int)
(declare-const x88 Int)
(declare-const x89 Int)
(declare-const x90 Int)
(declare-const x91 Int)
(declare-const x92 Int)
(declare-const x93 Int)
(declare-const x94 Int)
(declare-const x95 Int)
(declare-const v94 Int)
(declare-const x96 Int)
(declare-const x97 Int)
(declare-const v96 Int)
(declare-const x98 Int)
(declare-const x99 Int)
(declare-const x100 Int)
(declare-const x101 Int)
(declare-const x102 Int)
(declare-const x103 Int)
(declare-const x104 Int)
(declare-const x105 Int)
(declare-const x106 Int)
(declare-const x107 Int)
(declare-const x108 Int)
(declare-const x109 Int)
(declare-const x110 Int)
(declare-const x111 Int)
(declare-const v110 Int)
(declare-const x112 Int)
(declare-const x113 Int)
(declare-const x114 Int)
(declare-const x115 Int)
(declare-const x116 Int)
(declare-const x117 Int)
(declare-const v116 Int)
(declare-const x118 Int)
(declare-const x119 Int)

(assert(and
(distinct x29 x22) (< x88 x38) (= x117 x113) (< x66 x66) (distinct x112 x75) (= x96 x87) (< x102 x93) (= x11 x38) (= x94 x18) (= x0 x83) (= x46 x19) (= x16 x2) (< x27 x25) (< x29 x47) 
(sep
(blk x0 x1)
(pto x2 (c_data_t x3))
(pto x4 (c_data_t x5))
(blk x6 x7)
(pto x8 (c_data_t x9))
(blk x10 x11)
(hls x12 x13 v12)
(hls x14 x15 v14)
(blk x16 x17)
(blk x18 x19)
(hls x20 x21 v20)
(hls x22 x23 v22)
(hls x24 x25 v24)
(pto x26 (c_data_t x27))
(hls x28 x29 v28)
(pto x30 (c_data_t x31))
(pto x32 (c_data_t x33))
(blk x34 x35)
(blk x36 x37)
(pto x38 (c_data_t x39))
(hls x40 x41 v40)
(pto x42 (c_data_t x43))
(pto x44 (c_data_t x45))
(blk x46 x47)
(pto x48 (c_data_t x49))
(pto x50 (c_data_t x51))
(pto x52 (c_data_t x53))
(blk x54 x55)
(hls x56 x57 v56)
(blk x58 x59)
(blk x60 x61)
(hls x62 x63 v62)
(pto x64 (c_data_t x65))
(pto x66 (c_data_t x67))
(hls x68 x69 v68)
(pto x70 (c_data_t x71))
(hls x72 x73 v72)
(hls x74 x75 v74)
(hls x76 x77 v76)
(hls x78 x79 v78)
(pto x80 (c_data_t x81))
(hls x82 x83 v82)
(pto x84 (c_data_t x85))
(hls x86 x87 v86)
(blk x88 x89)
(pto x90 (c_data_t x91))
(blk x92 x93)
(hls x94 x95 v94)
(hls x96 x97 v96)
(blk x98 x99)
(pto x100 (c_data_t x101))
(pto x102 (c_data_t x103))
(blk x104 x105)
(blk x106 x107)
(pto x108 (c_data_t x109))
(hls x110 x111 v110)
(pto x112 (c_data_t x113))
(pto x114 (c_data_t x115))
(hls x116 x117 v116)
(pto x118 (c_data_t x119))
)))

(check-sat)